p cnf 181 700
c p weight 8 -1 0
c p weight -8 1 0
c p weight 10 6.12323399573676603586882014729198302312846062338790031898128063403419218957424163818359375E-17 0
c p weight -10 1 0
c p weight 11 1 0
c p weight -11 1 0
c p weight 12 -1 0
c p weight -12 1 0
c p weight 14 -1 0
c p weight -14 1 0
c p weight 16 1 0
c p weight -16 1 0
c p weight 17 0 0
c p weight -17 1 0
c p weight 18 -1 0
c p weight -18 1 0
c p weight 20 -1 0
c p weight -20 1 0
c p weight 22 6.12323399573676603586882014729198302312846062338790031898128063403419218957424163818359375E-17 0
c p weight -22 1 0
c p weight 23 1 0
c p weight -23 1 0
c p weight 24 -1 0
c p weight -24 1 0
c p weight 26 -1 0
c p weight -26 1 0
c p weight 28 1 0
c p weight -28 1 0
c p weight 29 0 0
c p weight -29 1 0
c p weight 30 -1 0
c p weight -30 1 0
c p weight 32 1 0
c p weight -32 1 0
c p weight 33 0 0
c p weight -33 1 0
c p weight 34 -1 0
c p weight -34 1 0
c p weight 36 6.12323399573676603586882014729198302312846062338790031898128063403419218957424163818359375E-17 0
c p weight -36 1 0
c p weight 37 1 0
c p weight -37 1 0
c p weight 38 -1 0
c p weight -38 1 0
c p weight 40 -0.600000000000000088817841970012523233890533447265625 0
c p weight -40 1 0
c p weight 41 -0.79999999999999993338661852249060757458209991455078125 0
c p weight -41 1 0
c p weight 42 -1 0
c p weight -42 1 0
c p weight 44 6.12323399573676603586882014729198302312846062338790031898128063403419218957424163818359375E-17 0
c p weight -44 1 0
c p weight 45 1 0
c p weight -45 1 0
c p weight 46 -1 0
c p weight -46 1 0
c p weight 48 -1 0
c p weight -48 1 0
c p weight 49 3.673940397442059375002259206809000622711899723162043418511757408850826323032379150390625E-16 0
c p weight -49 1 0
c p weight 50 -1 0
c p weight -50 1 0
c p weight 52 1 0
c p weight -52 1 0
c p weight 53 0 0
c p weight -53 1 0
c p weight 54 -1 0
c p weight -54 1 0
c p weight 57 -1 0
c p weight -57 1 0
c p weight 59 1 0
c p weight -59 1 0
c p weight 60 0 0
c p weight -60 1 0
c p weight 61 -1 0
c p weight -61 1 0
c p weight 63 6.12323399573676603586882014729198302312846062338790031898128063403419218957424163818359375E-17 0
c p weight -63 1 0
c p weight 64 1 0
c p weight -64 1 0
c p weight 65 -1 0
c p weight -65 1 0
c p weight 67 -0.5999999999999998667732370449812151491641998291015625 0
c p weight -67 1 0
c p weight 68 0.80000000000000015543122344752191565930843353271484375 0
c p weight -68 1 0
c p weight 69 -1 0
c p weight -69 1 0
c p weight 71 6.12323399573676603586882014729198302312846062338790031898128063403419218957424163818359375E-17 0
c p weight -71 1 0
c p weight 72 1 0
c p weight -72 1 0
c p weight 73 -1 0
c p weight -73 1 0
c p weight 75 -1 0
c p weight -75 1 0
c p weight 76 3.673940397442059375002259206809000622711899723162043418511757408850826323032379150390625E-16 0
c p weight -76 1 0
c p weight 77 -1 0
c p weight -77 1 0
c p weight 80 -1 0
c p weight -80 1 0
c p weight 82 0.70710678118654752440084436210485 0
c p weight -82 1 0
c p weight 83 -1 0
c p weight -83 1 0
c p weight 85 1 0
c p weight -85 1 0
c p weight 86 0 0
c p weight -86 1 0
c p weight 87 -1 0
c p weight -87 1 0
c p weight 89 6.12323399573676603586882014729198302312846062338790031898128063403419218957424163818359375E-17 0
c p weight -89 1 0
c p weight 90 1 0
c p weight -90 1 0
c p weight 91 -1 0
c p weight -91 1 0
c p weight 93 -0.600000000000000088817841970012523233890533447265625 0
c p weight -93 1 0
c p weight 94 -0.79999999999999993338661852249060757458209991455078125 0
c p weight -94 1 0
c p weight 95 -1 0
c p weight -95 1 0
c p weight 97 6.12323399573676603586882014729198302312846062338790031898128063403419218957424163818359375E-17 0
c p weight -97 1 0
c p weight 98 1 0
c p weight -98 1 0
c p weight 99 -1 0
c p weight -99 1 0
c p weight 101 -1 0
c p weight -101 1 0
c p weight 102 3.673940397442059375002259206809000622711899723162043418511757408850826323032379150390625E-16 0
c p weight -102 1 0
c p weight 103 -1 0
c p weight -103 1 0
c p weight 105 1 0
c p weight -105 1 0
c p weight 106 0 0
c p weight -106 1 0
c p weight 107 -1 0
c p weight -107 1 0
c p weight 110 -1 0
c p weight -110 1 0
c p weight 112 1 0
c p weight -112 1 0
c p weight 113 0 0
c p weight -113 1 0
c p weight 114 -1 0
c p weight -114 1 0
c p weight 116 6.12323399573676603586882014729198302312846062338790031898128063403419218957424163818359375E-17 0
c p weight -116 1 0
c p weight 117 1 0
c p weight -117 1 0
c p weight 118 -1 0
c p weight -118 1 0
c p weight 120 0.2800000000000000266453525910037569701671600341796875 0
c p weight -120 1 0
c p weight 121 0.95999999999999996447286321199499070644378662109375 0
c p weight -121 1 0
c p weight 122 -1 0
c p weight -122 1 0
c p weight 124 6.12323399573676603586882014729198302312846062338790031898128063403419218957424163818359375E-17 0
c p weight -124 1 0
c p weight 125 1 0
c p weight -125 1 0
c p weight 126 -1 0
c p weight -126 1 0
c p weight 128 -1 0
c p weight -128 1 0
c p weight 129 3.673940397442059375002259206809000622711899723162043418511757408850826323032379150390625E-16 0
c p weight -129 1 0
c p weight 130 -1 0
c p weight -130 1 0
c p weight 133 -1 0
c p weight -133 1 0
c p weight 135 -1 0
c p weight -135 1 0
c p weight 137 6.12323399573676603586882014729198302312846062338790031898128063403419218957424163818359375E-17 0
c p weight -137 1 0
c p weight 138 1 0
c p weight -138 1 0
c p weight 139 -1 0
c p weight -139 1 0
c p weight 141 -1 0
c p weight -141 1 0
c p weight 144 -1 0
c p weight -144 1 0
c p weight 146 0.70710678118654752440084436210485 0
c p weight -146 1 0
c p weight 147 -1 0
c p weight -147 1 0
c p weight 150 -1 0
c p weight -150 1 0
c p weight 152 -1 0
c p weight -152 1 0
c p weight 154 6.12323399573676603586882014729198302312846062338790031898128063403419218957424163818359375E-17 0
c p weight -154 1 0
c p weight 155 1 0
c p weight -155 1 0
c p weight 156 -1 0
c p weight -156 1 0
c p weight 158 -1 0
c p weight -158 1 0
c p weight 160 0.70710678118654752440084436210485 0
c p weight -160 1 0
c p weight 161 -1 0
c p weight -161 1 0
c p weight 163 1 0
c p weight -163 1 0
c p weight 164 0 0
c p weight -164 1 0
c p weight 165 -1 0
c p weight -165 1 0
c p weight 167 6.12323399573676603586882014729198302312846062338790031898128063403419218957424163818359375E-17 0
c p weight -167 1 0
c p weight 168 1 0
c p weight -168 1 0
c p weight 169 -1 0
c p weight -169 1 0
c p weight 171 0.2800000000000000266453525910037569701671600341796875 0
c p weight -171 1 0
c p weight 172 -0.95999999999999996447286321199499070644378662109375 0
c p weight -172 1 0
c p weight 173 -1 0
c p weight -173 1 0
c p weight 175 6.12323399573676603586882014729198302312846062338790031898128063403419218957424163818359375E-17 0
c p weight -175 1 0
c p weight 176 1 0
c p weight -176 1 0
c p weight 177 -1 0
c p weight -177 1 0
c p weight 179 -1 0
c p weight -179 1 0
c p weight 180 3.673940397442059375002259206809000622711899723162043418511757408850826323032379150390625E-16 0
c p weight -180 1 0
c p weight 181 -1 0
c p weight -181 1 0
-5 0
-3 0
-1 0
7 1 -2 0
7 -1 2 0
-7 1 2 0
-7 -1 -2 0
-8 1 0
-8 2 0
8 -1 -2 0
9 -1 7 0
-9 1 7 0
-10 7 0
9 -10 -1 0
-9 -10 1 0
9 10 1 -7 0
-9 10 -1 -7 0
-11 7 0
9 -11 1 0
-9 -11 -1 0
9 11 -1 -7 0
-9 11 1 -7 0
-12 9 0
-12 7 0
-12 -1 0
12 -9 1 -7 0
13 9 -7 0
13 -9 7 0
-13 9 7 0
-13 -9 -7 0
-14 9 0
-14 7 0
14 -9 -7 0
15 9 -13 0
-15 9 13 0
-16 9 0
15 -16 -13 0
-15 -16 13 0
15 16 -9 13 0
-15 16 -9 -13 0
-17 9 0
15 -17 13 0
-15 -17 -13 0
15 17 -9 -13 0
-15 17 -9 13 0
-18 9 0
-18 13 0
-18 -15 0
18 15 -9 -13 0
19 3 -4 0
19 -3 4 0
-19 3 4 0
-19 -3 -4 0
-20 3 0
-20 4 0
20 -3 -4 0
21 -3 19 0
-21 3 19 0
-22 19 0
21 -22 -3 0
-21 -22 3 0
21 22 3 -19 0
-21 22 -3 -19 0
-23 19 0
21 -23 3 0
-21 -23 -3 0
21 23 -3 -19 0
-21 23 3 -19 0
-24 21 0
-24 19 0
-24 -3 0
24 -21 3 -19 0
25 21 -19 0
25 -21 19 0
-25 21 19 0
-25 -21 -19 0
-26 21 0
-26 19 0
26 -21 -19 0
27 21 -25 0
-27 21 25 0
-28 21 0
27 -28 -25 0
-27 -28 25 0
27 28 -21 25 0
-27 28 -21 -25 0
-29 21 0
27 -29 25 0
-27 -29 -25 0
27 29 -21 -25 0
-27 29 -21 25 0
-30 21 0
-30 25 0
-30 -27 0
30 27 -21 -25 0
31 5 -6 0
-31 5 6 0
-32 5 0
31 -32 -6 0
-31 -32 6 0
31 32 -5 6 0
-31 32 -5 -6 0
-33 5 0
31 -33 6 0
-31 -33 -6 0
31 33 -5 -6 0
-31 33 -5 6 0
-34 5 0
-34 6 0
-34 -31 0
34 31 -5 -6 0
35 -5 31 0
-35 5 31 0
-36 31 0
35 -36 -5 0
-35 -36 5 0
35 36 5 -31 0
-35 36 -5 -31 0
-37 31 0
35 -37 5 0
-35 -37 -5 0
35 37 -5 -31 0
-35 37 5 -31 0
-38 35 0
-38 31 0
-38 -5 0
38 -35 5 -31 0
39 35 -31 0
-39 35 31 0
-40 35 0
39 -40 -31 0
-39 -40 31 0
39 40 -35 31 0
-39 40 -35 -31 0
-41 35 0
39 -41 31 0
-39 -41 -31 0
39 41 -35 -31 0
-39 41 -35 31 0
-42 35 0
-42 31 0
-42 -39 0
42 39 -35 -31 0
43 -35 39 0
-43 35 39 0
-44 39 0
43 -44 -35 0
-43 -44 35 0
43 44 35 -39 0
-43 44 -35 -39 0
-45 39 0
43 -45 35 0
-43 -45 -35 0
43 45 -35 -39 0
-43 45 35 -39 0
-46 43 0
-46 39 0
-46 -35 0
46 -43 35 -39 0
47 43 -39 0
-47 43 39 0
-48 43 0
47 -48 -39 0
-47 -48 39 0
47 48 -43 39 0
-47 48 -43 -39 0
-49 43 0
47 -49 39 0
-47 -49 -39 0
47 49 -43 -39 0
-47 49 -43 39 0
-50 43 0
-50 39 0
-50 -47 0
50 47 -43 -39 0
51 43 -47 0
-51 43 47 0
-52 43 0
51 -52 -47 0
-51 -52 47 0
51 52 -43 47 0
-51 52 -43 -47 0
-53 43 0
51 -53 47 0
-51 -53 -47 0
51 53 -43 -47 0
-51 53 -43 47 0
-54 43 0
-54 47 0
-54 -51 0
54 51 -43 -47 0
55 9 -43 0
55 -9 43 0
-55 9 43 0
-55 -9 -43 0
56 15 -51 0
56 -15 51 0
-56 15 51 0
-56 -15 -51 0
-57 9 0
-57 51 0
-57 43 -15 0
-57 -43 15 0
57 -9 43 15 -51 0
57 -9 -43 -15 -51 0
58 55 -51 0
-58 55 51 0
-59 55 0
58 -59 -51 0
-58 -59 51 0
58 59 -55 51 0
-58 59 -55 -51 0
-60 55 0
58 -60 51 0
-58 -60 -51 0
58 60 -55 -51 0
-58 60 -55 51 0
-61 55 0
-61 51 0
-61 -58 0
61 58 -55 -51 0
62 -55 58 0
-62 55 58 0
-63 58 0
62 -63 -55 0
-62 -63 55 0
62 63 55 -58 0
-62 63 -55 -58 0
-64 58 0
62 -64 55 0
-62 -64 -55 0
62 64 -55 -58 0
-62 64 55 -58 0
-65 62 0
-65 58 0
-65 -55 0
65 -62 55 -58 0
66 62 -58 0
-66 62 58 0
-67 62 0
66 -67 -58 0
-66 -67 58 0
66 67 -62 58 0
-66 67 -62 -58 0
-68 62 0
66 -68 58 0
-66 -68 -58 0
66 68 -62 -58 0
-66 68 -62 58 0
-69 62 0
-69 58 0
-69 -66 0
69 66 -62 -58 0
70 -62 66 0
-70 62 66 0
-71 66 0
70 -71 -62 0
-70 -71 62 0
70 71 62 -66 0
-70 71 -62 -66 0
-72 66 0
70 -72 62 0
-70 -72 -62 0
70 72 -62 -66 0
-70 72 62 -66 0
-73 70 0
-73 66 0
-73 -62 0
73 -70 62 -66 0
74 70 -66 0
-74 70 66 0
-75 70 0
74 -75 -66 0
-74 -75 66 0
74 75 -70 66 0
-74 75 -70 -66 0
-76 70 0
74 -76 66 0
-74 -76 -66 0
74 76 -70 -66 0
-74 76 -70 66 0
-77 70 0
-77 66 0
-77 -74 0
77 74 -70 -66 0
78 9 -70 0
78 -9 70 0
-78 9 70 0
-78 -9 -70 0
79 56 -74 0
79 -56 74 0
-79 56 74 0
-79 -56 -74 0
-80 9 0
-80 74 0
-80 70 -56 0
-80 -70 56 0
80 -9 70 56 -74 0
80 -9 -70 -56 -74 0
81 9 -79 0
-81 9 79 0
82 -9 0
-82 9 0
-83 81 0
-83 9 0
-83 -79 0
83 -81 -9 79 0
84 78 -74 0
-84 78 74 0
-85 78 0
84 -85 -74 0
-84 -85 74 0
84 85 -78 74 0
-84 85 -78 -74 0
-86 78 0
84 -86 74 0
-84 -86 -74 0
84 86 -78 -74 0
-84 86 -78 74 0
-87 78 0
-87 74 0
-87 -84 0
87 84 -78 -74 0
88 -78 84 0
-88 78 84 0
-89 84 0
88 -89 -78 0
-88 -89 78 0
88 89 78 -84 0
-88 89 -78 -84 0
-90 84 0
88 -90 78 0
-88 -90 -78 0
88 90 -78 -84 0
-88 90 78 -84 0
-91 88 0
-91 84 0
-91 -78 0
91 -88 78 -84 0
92 88 -84 0
-92 88 84 0
-93 88 0
92 -93 -84 0
-92 -93 84 0
92 93 -88 84 0
-92 93 -88 -84 0
-94 88 0
92 -94 84 0
-92 -94 -84 0
92 94 -88 -84 0
-92 94 -88 84 0
-95 88 0
-95 84 0
-95 -92 0
95 92 -88 -84 0
96 -88 92 0
-96 88 92 0
-97 92 0
96 -97 -88 0
-96 -97 88 0
96 97 88 -92 0
-96 97 -88 -92 0
-98 92 0
96 -98 88 0
-96 -98 -88 0
96 98 -88 -92 0
-96 98 88 -92 0
-99 96 0
-99 92 0
-99 -88 0
99 -96 88 -92 0
100 96 -92 0
-100 96 92 0
-101 96 0
100 -101 -92 0
-100 -101 92 0
100 101 -96 92 0
-100 101 -96 -92 0
-102 96 0
100 -102 92 0
-100 -102 -92 0
100 102 -96 -92 0
-100 102 -96 92 0
-103 96 0
-103 92 0
-103 -100 0
103 100 -96 -92 0
104 96 -100 0
-104 96 100 0
-105 96 0
104 -105 -100 0
-104 -105 100 0
104 105 -96 100 0
-104 105 -96 -100 0
-106 96 0
104 -106 100 0
-104 -106 -100 0
104 106 -96 -100 0
-104 106 -96 100 0
-107 96 0
-107 100 0
-107 -104 0
107 104 -96 -100 0
108 21 -96 0
108 -21 96 0
-108 21 96 0
-108 -21 -96 0
109 27 -104 0
109 -27 104 0
-109 27 104 0
-109 -27 -104 0
-110 21 0
-110 104 0
-110 96 -27 0
-110 -96 27 0
110 -21 96 27 -104 0
110 -21 -96 -27 -104 0
111 108 -104 0
-111 108 104 0
-112 108 0
111 -112 -104 0
-111 -112 104 0
111 112 -108 104 0
-111 112 -108 -104 0
-113 108 0
111 -113 104 0
-111 -113 -104 0
111 113 -108 -104 0
-111 113 -108 104 0
-114 108 0
-114 104 0
-114 -111 0
114 111 -108 -104 0
115 -108 111 0
-115 108 111 0
-116 111 0
115 -116 -108 0
-115 -116 108 0
115 116 108 -111 0
-115 116 -108 -111 0
-117 111 0
115 -117 108 0
-115 -117 -108 0
115 117 -108 -111 0
-115 117 108 -111 0
-118 115 0
-118 111 0
-118 -108 0
118 -115 108 -111 0
119 115 -111 0
-119 115 111 0
-120 115 0
119 -120 -111 0
-119 -120 111 0
119 120 -115 111 0
-119 120 -115 -111 0
-121 115 0
119 -121 111 0
-119 -121 -111 0
119 121 -115 -111 0
-119 121 -115 111 0
-122 115 0
-122 111 0
-122 -119 0
122 119 -115 -111 0
123 -115 119 0
-123 115 119 0
-124 119 0
123 -124 -115 0
-123 -124 115 0
123 124 115 -119 0
-123 124 -115 -119 0
-125 119 0
123 -125 115 0
-123 -125 -115 0
123 125 -115 -119 0
-123 125 115 -119 0
-126 123 0
-126 119 0
-126 -115 0
126 -123 115 -119 0
127 123 -119 0
-127 123 119 0
-128 123 0
127 -128 -119 0
-127 -128 119 0
127 128 -123 119 0
-127 128 -123 -119 0
-129 123 0
127 -129 119 0
-127 -129 -119 0
127 129 -123 -119 0
-127 129 -123 119 0
-130 123 0
-130 119 0
-130 -127 0
130 127 -123 -119 0
131 21 -123 0
131 -21 123 0
-131 21 123 0
-131 -21 -123 0
132 109 -127 0
132 -109 127 0
-132 109 127 0
-132 -109 -127 0
-133 21 0
-133 127 0
-133 123 -109 0
-133 -123 109 0
133 -21 123 109 -127 0
133 -21 -123 -109 -127 0
134 21 -132 0
134 -21 132 0
-134 21 132 0
-134 -21 -132 0
-135 21 0
-135 132 0
135 -21 -132 0
136 -21 134 0
-136 21 134 0
-137 134 0
136 -137 -21 0
-136 -137 21 0
136 137 21 -134 0
-136 137 -21 -134 0
-138 134 0
136 -138 21 0
-136 -138 -21 0
136 138 -21 -134 0
-136 138 21 -134 0
-139 136 0
-139 134 0
-139 -21 0
139 -136 21 -134 0
140 136 -134 0
140 -136 134 0
-140 136 134 0
-140 -136 -134 0
-141 136 0
-141 134 0
141 -136 -134 0
142 9 -136 0
142 -9 136 0
-142 9 136 0
-142 -9 -136 0
143 81 -140 0
143 -81 140 0
-143 81 140 0
-143 -81 -140 0
-144 9 0
-144 140 0
-144 136 -81 0
-144 -136 81 0
144 -9 136 81 -140 0
144 -9 -136 -81 -140 0
145 142 -140 0
-145 142 140 0
146 -142 0
-146 142 0
-147 142 0
-147 140 0
-147 -145 0
147 145 -142 -140 0
148 9 -142 0
148 -9 142 0
-148 9 142 0
-148 -9 -142 0
149 143 -145 0
149 -143 145 0
-149 143 145 0
-149 -143 -145 0
-150 9 0
-150 145 0
-150 142 -143 0
-150 -142 143 0
150 -9 142 143 -145 0
150 -9 -142 -143 -145 0
151 9 -149 0
151 -9 149 0
-151 9 149 0
-151 -9 -149 0
-152 9 0
-152 149 0
152 -9 -149 0
153 -9 151 0
-153 9 151 0
-154 151 0
153 -154 -9 0
-153 -154 9 0
153 154 9 -151 0
-153 154 -9 -151 0
-155 151 0
153 -155 9 0
-153 -155 -9 0
153 155 -9 -151 0
-153 155 9 -151 0
-156 153 0
-156 151 0
-156 -9 0
156 -153 9 -151 0
157 153 -151 0
157 -153 151 0
-157 153 151 0
-157 -153 -151 0
-158 153 0
-158 151 0
158 -153 -151 0
159 148 -145 0
-159 148 145 0
160 -148 0
-160 148 0
-161 159 0
-161 148 0
-161 -145 0
161 -159 -148 145 0
162 131 -127 0
-162 131 127 0
-163 131 0
162 -163 -127 0
-162 -163 127 0
162 163 -131 127 0
-162 163 -131 -127 0
-164 131 0
162 -164 127 0
-162 -164 -127 0
162 164 -131 -127 0
-162 164 -131 127 0
-165 131 0
-165 127 0
-165 -162 0
165 162 -131 -127 0
166 -131 162 0
-166 131 162 0
-167 162 0
166 -167 -131 0
-166 -167 131 0
166 167 131 -162 0
-166 167 -131 -162 0
-168 162 0
166 -168 131 0
-166 -168 -131 0
166 168 -131 -162 0
-166 168 131 -162 0
-169 166 0
-169 162 0
-169 -131 0
169 -166 131 -162 0
170 166 -162 0
-170 166 162 0
-171 166 0
170 -171 -162 0
-170 -171 162 0
170 171 -166 162 0
-170 171 -166 -162 0
-172 166 0
170 -172 162 0
-170 -172 -162 0
170 172 -166 -162 0
-170 172 -166 162 0
-173 166 0
-173 162 0
-173 -170 0
173 170 -166 -162 0
174 -166 170 0
-174 166 170 0
-175 170 0
174 -175 -166 0
-174 -175 166 0
174 175 166 -170 0
-174 175 -166 -170 0
-176 170 0
174 -176 166 0
-174 -176 -166 0
174 176 -166 -170 0
-174 176 166 -170 0
-177 174 0
-177 170 0
-177 -166 0
177 -174 166 -170 0
178 174 -170 0
-178 174 170 0
-179 174 0
178 -179 -170 0
-178 -179 170 0
178 179 -174 170 0
-178 179 -174 -170 0
-180 174 0
178 -180 170 0
-178 -180 -170 0
178 180 -174 -170 0
-178 180 -174 170 0
-181 174 0
-181 170 0
-181 -178 0
181 178 -174 -170 0
-153 0
-148 0
-159 0
-174 0
-178 0
